
Log started (V11.0.0) Tue May 13 17:39:17 2008

Tried aggregator 1 time.
Reduced MIP has 110 rows, 1001 columns, and 2010 nonzeros.
Presolve time =    0.00 sec.
Clique table members: 100.
MIP emphasis: balance optimality and feasibility.
MIP search method: dynamic search.
Parallel mode: none, using 1 thread.
Root relaxation solution time =    0.00 sec.

        Nodes                                         Cuts/
   Node  Left     Objective  IInf  Best Integer     Best Node    ItCnt     Gap

*     0+    0                         9580.0000      255.2528      139   97.34%
*     0+    0                          301.0000      255.2528      139   15.20%
      0     0      256.4470    18      301.0000      Fract: 6      167   14.80%
*     0+    0                          279.0000      256.4470      167    8.08%
      0     0      260.5408    32      279.0000      Cuts: 10      248    6.62%
*     0+    0                          274.0000      260.5408      248    4.91%
      0     0      260.6497    42      274.0000       Cuts: 8      278    4.87%
*     0+    0                          273.0000      260.6497      278    4.52%
      0     0      260.7168    50      273.0000       Cuts: 8      306    4.50%
      0     0      261.0661    45      273.0000       Cuts: 6      344    4.37%
      0     0      261.1283    47      273.0000    MIRcuts: 3      355    4.35%
      0     0      261.2537    47      273.0000       Cuts: 4      375    4.30%
      0     0      261.2604    51      273.0000    MIRcuts: 3      381    4.30%
      0     0      262.0535    30      273.0000       Cuts: 4      442    4.01%
      0     0      262.0544    31      273.0000       Cuts: 3      449    4.01%
*     0+    0                          271.0000      262.0544      449    3.30%
*     0+    0                          270.0000      262.0544      449    2.94%
*     0+    0                          269.0000      262.0544      449    2.58%
      0     2      263.0000    30      269.0000      262.0544      449    2.58%
    100    71      264.0000    14      269.0000      263.0000     2175    2.23%
    200   124      264.0000    15      269.0000      263.0000     3726    2.23%
*   240+  146                          268.0000      263.0000     4063    1.87%
    300   203      264.0000    15      268.0000      263.0000     4583    1.87%
    400   272      266.0000    13      268.0000      263.0000     5181    1.87%
*   491+    0                          266.0000      266.0000     5952    0.00%

Cover cuts applied:  6
Mixed integer rounding cuts applied:  3
Gomory fractional cuts applied:  3

Solution pool: 10 solutions saved.

MIP - Integer optimal solution:  Objective = 2.6600000000e+002
Solution time =    2.16 sec.  Iterations = 5952  Nodes = 491


Incumbent solution
Variable Name           Solution Value
Cmax                        266.000000
X_1_6                         1.000000
X_2_5                         1.000000
X_3_7                         1.000000
X_4_3                         1.000000
X_5_1                         1.000000
X_6_7                         1.000000
X_7_5                         1.000000
X_8_10                        1.000000
X_9_4                         1.000000
X_10_1                        1.000000
X_11_5                        1.000000
X_12_6                        1.000000
X_13_1                        1.000000
X_14_1                        1.000000
X_15_6                        1.000000
X_16_5                        1.000000
X_17_1                        1.000000
X_18_7                        1.000000
X_19_5                        1.000000
X_20_5                        1.000000
X_21_1                        1.000000
X_22_1                        1.000000
X_23_1                        1.000000
X_24_1                        1.000000
X_25_1                        1.000000
X_26_1                        1.000000
X_27_5                        1.000000
X_28_5                        1.000000
X_29_5                        1.000000
X_30_7                        1.000000
X_31_9                        1.000000
X_32_1                        1.000000
X_33_7                        1.000000
X_34_3                        1.000000
X_35_1                        1.000000
X_36_7                        1.000000
X_37_6                        1.000000
X_38_7                        1.000000
X_39_6                        1.000000
X_40_8                        1.000000
X_41_6                        1.000000
X_42_9                        1.000000
X_43_10                       1.000000
X_44_5                        1.000000
X_45_5                        1.000000
X_46_1                        1.000000
X_47_1                        1.000000
X_48_1                        1.000000
X_49_1                        1.000000
X_50_1                        1.000000
X_51_1                        1.000000
X_52_5                        1.000000
X_53_6                        1.000000
X_54_2                        1.000000
X_55_5                        1.000000
X_56_7                        1.000000
X_57_7                        1.000000
X_58_2                        1.000000
X_59_6                        1.000000
X_60_7                        1.000000
X_61_7                        1.000000
X_62_7                        1.000000
X_63_4                        1.000000
X_64_9                        1.000000
X_65_9                        1.000000
X_66_1                        1.000000
X_67_1                        1.000000
X_68_3                        1.000000
X_69_9                        1.000000
X_70_1                        1.000000
X_71_1                        1.000000
X_72_1                        1.000000
X_73_1                        1.000000
X_74_7                        1.000000
X_75_9                        1.000000
X_76_1                        1.000000
X_77_1                        1.000000
X_78_6                        1.000000
X_79_5                        1.000000
X_80_1                        1.000000
X_81_1                        1.000000
X_82_5                        1.000000
X_83_1                        1.000000
X_84_1                        1.000000
X_85_1                        1.000000
X_86_8                        1.000000
X_87_7                        1.000000
X_88_7                        1.000000
X_89_7                        1.000000
X_90_7                        1.000000
X_91_1                        1.000000
X_92_1                        1.000000
X_93_1                        1.000000
X_94_5                        1.000000
X_95_10                       1.000000
X_96_8                        1.000000
X_97_5                        1.000000
X_98_1                        1.000000
X_99_7                        1.000000
X_100_1                       1.000000
All other variables in the range 1-1001 are 0.
